l=1568;
a=2;
setup_costs=[|0,0,
|0,0,
|0,0|];
setup_times=[|2,2,
|2,2,
|0,0|];
m=5;
min_cap=[0,0,0,0,0];
max_cap=[67,99,84,97,81];

initState=[1,1,1,1,1];
s=5;
m_a_s = [|0,0,0,0,918,
|0,0,0,965,1544,
|0,0,0,0,1079,
|635,693,786,844,1114,
|1149,1224,1396,1493,1535|];
m_a_e = [|0,0,0,0,1536,
|0,0,0,1505,1568,
|0,0,0,0,1445,
|658,736,810,1045,1257,
|1183,1351,1440,1520,1568|];
n=50;
eligible_machine = [{5,2,3,4},
{1},
{4,2,3,5},
{3,4,5},
{5,2,3},
{2,1,5},
{1,5},
{5,3,4},
{1},
{5,1,3,4},
{4,1,2,3},
{2,3,4,5},
{3,1,4,5},
{4,1,2,3,5},
{4,1,2,3},
{1,2,3},
{4,1},
{2,3,5},
{5},
{1,2,3,5},
{2,1,4},
{4,1,2,3,5},
{5,3,4},
{5,1,3},
{1,2,3,5},
{3,5},
{4,1,2,3,5},
{3,1,2,4,5},
{1,3,5},
{5},
{5,1,3},
{1,2,3,4,5},
{3,4},
{3,2,4,5},
{3,2},
{5,3,4},
{5,2,3},
{5,1,3,4},
{2,4,5},
{5,1,2,4},
{2,1,3,4},
{5,1,4},
{4,2,3,5},
{2},
{4,1,2,5},
{3,1,2,4,5},
{1},
{5,1,4},
{1,3,4},
{3,1,2,5}];
earliest_start=[9,23,12,12,5,16,19,28,24,18,4,27,26,4,18,11,15,14,11,26,19,11,20,19,23,6,26,22,1,20,16,25,23,21,27,27,27,24,8,16,6,23,11,16,6,10,23,22,26,14];
latest_end=[25,56,29,15,17,19,28,45,43,35,31,48,66,20,50,27,33,54,28,28,31,49,29,51,44,35,27,45,24,30,40,39,32,39,28,65,38,32,14,20,18,48,46,33,27,25,28,30,36,21];
min_time=[4,9,9,3,4,2,5,9,4,4,8,8,10,5,8,4,6,9,10,1,9,8,3,10,5,7,1,6,10,3,7,4,3,5,1,9,8,2,2,4,3,7,9,5,9,8,2,2,8,3];
max_time=[10,10,10,10,10,10,10,10,10,10,10,10,10,10,10,10,10,10,10,10,10,10,10,10,10,10,10,10,10,10,10,10,10,10,10,10,10,10,10,10,10,10,10,10,10,10,10,10,10,10];
size=[19,18,14,3,18,7,13,16,7,7,11,3,7,6,3,12,12,5,15,2,6,2,19,2,8,5,18,13,12,1,9,8,5,14,12,12,5,7,16,16,8,11,14,12,11,13,3,14,10,9];
attribute=[2,2,1,1,1,2,2,2,2,2,1,2,1,1,1,2,1,1,2,2,1,2,2,1,1,1,2,2,2,1,2,1,1,1,2,1,1,1,2,2,1,2,1,2,1,2,1,2,2,1];

upper_bound_integer_objective=1500;
mult_factor_total_runtime=2;
mult_factor_finished_toolate=12;
mult_factor_total_setuptimes=0;
mult_factor_total_setupcosts=6;
running_time_bound=285;
min_duration=1;
max_duration=10;
max_setup_time=2;
max_setup_cost=0;
